c generated by ezSAT
p cnf 13 26
    1              0
   -2              0
    1              0
    3    4   -6    0
    6   -3         0
    6   -4         0
    5    6    7    0
   -7   -5         0
   -7   -6         0
   -6   -5    8    0
   -8    6         0
   -8    5         0
    7    8   -9    0
    9   -7         0
    9   -8         0
    9              0
    3  -10   11    0
  -11   -3         0
  -11   10         0
   10   -3   12    0
  -12  -10         0
  -12    3         0
   11   12  -13    0
   13  -11         0
   13  -12         0
   13              0
